30 3
13 28
24 49
57 28
78 100
72 67
7 14
53 55
59 8
73 46
77 92
69 93
60 40
69 89
78 28
4 77
31 88
36 68
13 15
91 55
84 47
22 31
56 57
69 84
47 91
5 11
50 47
58 79
89 78
42 27
45 69
496 596
601 741
552 655
